#SOLVERNAME# PAJ_CPLEX_MOSEK_msddualonly
#SOLVER# Pajarito.PajaritoSolver(3,3600.0,1.0e-5,true,CPLEX.CplexSolver(Any[(:CPX_PARAM_THREADS,1),(:CPX_PARAM_SCRIND,1),(:CPX_PARAM_EPINT,1.0e-8),(:CPX_PARAM_EPRHS,1.0e-7),(:CPX_PARAM_EPGAP,1.0e-5)]),Pajarito.UnsetSolver(),0,false,true,Mosek.MosekMathProgSolverInterface.MosekSolver(Any[(:LOG,0),(:NUM_THREADS,1)]),true,true,false,false,true,false,false,true,false,true,true,true,true,false,true,2.0,true,false,false,false,1.0e-10,1.0e-6)
#INSTANCE# ck_n75_m20_o3_5.cbf.gz
#TIMELIMIT# 3600.0

Problem dimensions:
       variables |      3136
     constraints |      3135
   nonzeros in A |      5147

Cones summary:
Cone             | Count     | Min dim.  | Max dim. 
    Rotated S.O. |        20 |        77 |        77

Variable types:
      continuous |      3061
         integer |        75

Transforming data...               0.01s

Creating conic subproblem...       0.01s

Building MIP model...              0.02s

Solving conic relaxation...        0.03s
 - Relaxation status    =        Optimal
 - Relaxation objective =  -28647.824794

Flow cuts applied:  1
Mixed integer rounding cuts applied:  4
Gomory fractional cuts applied:  2
User cuts applied:  30

Root node processing (before b&c):
  Real time             =    0.37 sec. (12.45 ticks)
Sequential b&c:
  Real time             =    0.01 sec. (4.69 ticks)
                          ------------
Total (root+branch&cut) =    0.37 sec. (17.14 ticks)
Warning: Control callbacks may disable some MIP features.
Tried aggregator 2 times.
MIP Presolve eliminated 8211 rows and 2528 columns.
Aggregator did 511 substitutions.
Reduced MIP has 713 rows, 1616 columns, and 3858 nonzeros.
Reduced MIP has 75 binaries, 0 generals, 0 SOSs, and 0 indicators.
Presolve time = 0.01 sec. (6.76 ticks)
Probing time = 0.00 sec. (2.31 ticks)
Clique table members: 3.
MIP emphasis: balance optimality and feasibility.
MIP search method: traditional branch-and-cut.
Parallel mode: none, using 1 thread.
Root relaxation solution time = 0.01 sec. (17.98 ticks)

        Nodes                                         Cuts/
   Node  Left     Objective  IInf  Best Integer    Best Bound    ItCnt     Gap

      0     0   -28647.8248    25                 -28647.8248      452         
*     0+    0                       -20543.0000   -28647.8248            39.45%
*     0+    0                       -24223.0000   -28647.8248            18.27%
      0     0   -28042.7605    28   -24223.0000     Cuts: 150      661   15.77%
*     0+    0                       -24811.0000   -28042.7605            13.03%
      0     0   -27689.1656    34   -24811.0000     Cuts: 151      798   11.60%
      0     0   -27521.2545    31   -24811.0000     Cuts: 141      911   10.92%
      0     0   -27439.9047    31   -24811.0000      Cuts: 90      979   10.60%
      0     0   -27405.1730    32   -24811.0000      Cuts: 66     1045   10.46%
*     0+    0                       -24838.0000   -27405.1730            10.34%
      0     0   -27383.2678    32   -24838.0000      Cuts: 93     1092   10.25%
      0     0   -27377.2453    31   -24838.0000      Cuts: 40     1131   10.22%
      0     0   -27373.0610    30   -24838.0000      Cuts: 40     1155   10.21%
      0     0   -27371.5616    32   -24838.0000      Cuts: 30     1176   10.20%
*     0+    0                       -24868.0000   -27371.5616            10.07%
      0     0   -27370.6180    31   -24868.0000      Cuts: 20     1193   10.06%
      0     2   -27370.6180    31   -24868.0000   -27348.8759     1193    9.98%
Elapsed time = 0.50 sec. (417.80 ticks, tree = 0.01 MB, solutions = 5)
*    70+   59                       -24957.0000   -27239.6997             9.15%
     73    64   -25634.2477     1   -24957.0000   -27239.6997     3571    9.15%
*    77    62      integral     0   -25185.0000   -27239.6997     3600    8.16%
    160   126   -26433.0113    18   -25185.0000   -27166.9760     7104    7.87%
*   177+  128                       -25445.0000   -27166.9760             6.77%
    258   182   -25482.6539    14   -25445.0000   -27111.6638    10561    6.55%
    355   257   -26764.2569    28   -25445.0000   -27081.8264    14393    6.43%
    427   307   -25901.4040    15   -25445.0000   -27028.3569    18122    6.22%
    521   364   -26671.7493    25   -25445.0000   -26999.8783    22347    6.11%
    610   428   -26622.1880    19   -25445.0000   -26961.6058    26414    5.96%
    697   486   -26196.2532    20   -25445.0000   -26902.5840    30478    5.73%
   1028   666   -26309.0460    27   -25445.0000   -26803.9875    45247    5.34%
Elapsed time = 3.38 sec. (3304.62 ticks, tree = 0.51 MB, solutions = 8)
   1395   858   -26662.3523    23   -25445.0000   -26708.2265    61616    4.96%
   1716  1018   -25645.9230    20   -25445.0000   -26637.6228    77963    4.69%
   2090  1208        cutoff         -25445.0000   -26558.7449    93727    4.38%
   2430  1387   -25635.1161    26   -25445.0000   -26508.5133   110345    4.18%
   2796  1550        cutoff         -25445.0000   -26435.5744   126985    3.89%
*  3060+ 1444                       -25556.0000   -26401.7716             3.31%
   3094  1460   -25710.3642    20   -25556.0000   -26398.7871   143892    3.30%
   3376  1533        cutoff         -25556.0000   -26354.9168   160115    3.13%
   3707  1665   -25892.8902    18   -25556.0000   -26317.3742   176451    2.98%
   4034  1756   -26092.9580    20   -25556.0000   -26281.7659   192921    2.84%
   4371  1836   -25590.8369    16   -25556.0000   -26240.5501   209843    2.68%
Elapsed time = 12.97 sec. (12871.48 ticks, tree = 1.52 MB, solutions = 9)
   4693  1882   -25768.9650    17   -25556.0000   -26205.7727   226435    2.54%
   5013  1953   -25607.7757    19   -25556.0000   -26166.8408   243123    2.39%
   5321  1982   -25981.9357     7   -25556.0000   -26123.8179   260127    2.22%
*  5610+ 1920                       -25575.0000   -26085.6832             2.00%
   5626  1922   -25628.8198    25   -25575.0000   -26083.2700   276985    1.99%
   5937  1929        cutoff         -25575.0000   -26052.1078   291475    1.87%
   6234  1937   -25591.1303    12   -25575.0000   -26021.2522   306698    1.74%
   6562  1893   -25594.5744     9   -25575.0000   -25980.5706   323358    1.59%
   6920  1786   -25630.4701    26   -25575.0000   -25934.9610   339381    1.41%
   7285  1709        cutoff         -25575.0000   -25891.6298   355181    1.24%
   7685  1557   -25675.9634    25   -25575.0000   -25847.2919   371607    1.06%
Elapsed time = 22.71 sec. (22448.75 ticks, tree = 1.30 MB, solutions = 10)
   8165  1357   -25589.6396     9   -25575.0000   -25796.7395   388091    0.87%
*  8310+ 1216                       -25584.0000   -25777.5090             0.76%
   8607   982        cutoff         -25584.0000   -25738.0791   402119    0.60%
   9389   285    infeasible         -25584.0000   -25634.9569   414491    0.20%

Starting MIP-solver-driven algorithm

MIP-solver-driven algorithm summary:
 - Status               =        Optimal
 - Best feasible        =  -2.558400e+04
 - Best bound           =  -2.558400e+04
 - Relative opt. gap    =      0.000e+00
 - Total time (s)       =       2.61e+01

Timers (s):
 - Setup                =   3.56e-02
 -- Transform data      =   8.69e-03
 -- Create conic data   =   1.03e-02
 -- Create MIP data     =   1.66e-02
 - Algorithm            =   2.60e+01
 -- Solve relaxation    =   2.76e-02
 -- Get relaxation cuts =   3.26e-03
 -- MIP solver driving  =   2.60e+01
 -- Solve subproblems   =   9.13e-02
 -- Get subproblem cuts =   1.08e-02
 -- Get primal cuts     =   1.10e-03

Counters:
 - Lazy callbacks       =    17
 -- Integer repeats     =     1
 -- Conic subproblems   =    16
 --- Infeasible         =     5
 --- Optimal            =    11
 --- Suboptimal         =     0
 --- UserLimit          =     0
 --- ConicFailure       =     0
 --- Other status       =     0
 -- Feasible solutions  =    11
 --- From subproblems   =    11
 --- In lazy callback   =     0
 - Heuristic callbacks  =  5624
 -- Solutions passed    =    10

Solution returned by conic solver

Outer-approximation cuts added:
Cone             | Relax.    | Violated  | Nonviol. 
    Second order |       180 |       236 |         0

0 numerically unstable cone duals encountered

Distance to feasibility (negative indicates strict feasibility):
Cone             | Variable  | Constraint
          Linear |  0.00e+00 |  5.68e-14
    Rotated S.O. | -7.90e-01 |        NA

Distance to integrality of integer/binary variables:
         integer |  0.00e+00

#STATUS# Optimal
#OBJVAL# 25584.0
#OBJBOUND# 25584.0
#TIMESOLVER# 26.06616497039795
#TIMEALL# 26.0997531414032
#SOLUTION# [1.0,-0.0,1.0,1.0,1.0,0.0,0.0,1.0,0.0,0.0,1.0,0.0,-0.0,0.0,0.0,1.0,1.0,1.0,0.0,-0.0,1.0,1.0,0.0,1.0,1.0,-0.0,1.0,0.0,1.0,1.0,1.0,0.0,1.0,0.0,1.0,1.0,-0.0,1.0,1.0,1.0,-0.0,1.0,0.0,-0.0,0.0,1.0,1.0,-0.0,1.0,1.0,-0.0,0.0,0.0,0.0,1.0,1.0,1.0,0.0,1.0,0.0,-0.0,1.0,0.0,1.0,0.0,1.0,1.0,1.0,0.0,0.0,1.0,1.0,-0.0,0.0,1.0,0.0,0.0,0.0,7.0,0.0,0.0,0.0,0.0,0.0,0.0,0.0,0.0,0.0,0.0,0.0,0.0,0.0,0.0,0.0,0.0,0.0,0.0,0.0,0.0,0.0,105.0,0.0,0.0,0.0,0.0,0.0,0.0,0.0,1.0,0.0,0.0,0.0,0.0,128.0,0.0,155.0,0.0,0.0,0.0,0.0,0.0,0.0,0.0,0.0,118.0,0.0,0.0,0.0,0.0,0.0,0.0,0.0,0.0,0.0,0.0,0.0,0.0,4.0,0.0,0.0,0.0,0.0,0.0,188.0,0.0,0.0,0.0,0.0,0.0,0.0,60.0,327.0169592991127,237.0,0.0,62.0,0.0,0.0,0.0,0.0,0.0,0.0,0.0,0.0,0.0,0.0,0.0,0.0,0.0,0.0,0.0,0.0,0.0,0.0,0.0,0.0,0.0,0.0,0.0,0.0,0.0,0.0,0.0,0.0,0.0,0.0,0.0,0.0,0.0,0.0,0.0,0.0,0.0,0.0,0.0,0.0,0.0,0.0,0.0,0.0,0.0,0.0,0.0,0.0,0.0,0.0,0.0,0.0,0.0,0.0,0.0,0.0,0.0,0.0,0.0,0.0,0.0,0.0,0.0,0.0,0.0,0.0,0.0,0.0,0.0,0.0,0.0,0.0,270.75386919799695,0.0,0.0,0.0,0.0,0.0,0.0,0.0,0.0,0.0,0.0,0.0,0.0,0.0,0.0,0.0,0.0,0.0,0.0,0.0,0.0,0.0,65.0,0.0,0.0,0.0,0.0,0.0,0.0,0.0,0.0,0.0,0.0,0.0,0.0,0.0,0.0,0.0,0.0,0.0,0.0,0.0,0.0,0.0,0.0,0.0,0.0,0.0,0.0,0.0,0.0,0.0,0.0,0.0,0.0,0.0,0.0,0.0,0.0,0.0,0.0,0.0,0.0,0.0,100.0,0.0,0.0,0.0,0.0,0.0,0.0,6.0,0.0,0.0,0.0,0.0,128.915803568274,0.0,0.0,0.0,0.0,0.0,0.0,0.0,3.0,0.0,0.0,0.0,0.0,0.0,0.0,0.0,0.0,0.0,0.0,0.0,0.0,0.0,0.0,0.0,0.0,0.0,0.0,0.0,0.0,0.0,0.0,0.0,0.0,0.0,0.0,0.0,0.0,0.0,0.0,0.0,0.0,0.0,0.0,0.0,0.0,0.0,0.0,0.0,0.0,0.0,27.0,0.0,0.0,0.0,0.0,74.0,93.0,0.0,0.0,0.0,0.0,0.0,0.0,0.0,46.0,0.0,0.0,0.0,1.0,0.0,0.0,0.0,0.0,0.0,0.0,0.0,172.1666399420182,0.0,0.0,0.0,0.0,5.0,0.0,0.0,0.0,0.0,0.0,0.0,0.0,0.0,0.0,0.0,0.0,0.0,0.0,0.0,0.0,47.0,0.0,0.0,0.0,0.0,0.0,0.0,0.0,0.0,0.0,27.0,0.0,0.0,0.0,0.0,0.0,0.0,0.0,217.0,0.0,0.0,0.0,0.0,0.0,0.0,0.0,0.0,0.0,0.0,133.0,0.0,0.0,0.0,0.0,0.0,0.0,0.0,0.0,169.0,0.0,0.0,0.0,0.0,0.0,0.0,0.0,0.0,0.0,0.0,0.0,0.0,0.0,0.0,0.0,0.0,323.62867759577676,118.0,0.0,0.0,0.0,80.0,0.0,0.0,117.0,0.0,0.0,0.0,0.0,0.0,0.0,0.0,28.0,0.0,0.0,0.0,0.0,0.0,0.0,0.0,0.0,0.0,0.0,0.0,0.0,0.0,0.0,0.0,0.0,156.0,0.0,53.0,50.0,0.0,76.0,0.0,0.0,0.0,0.0,0.0,0.0,0.0,8.0,0.0,0.0,0.0,2.0,0.0,0.0,0.0,0.0,0.0,0.0,0.0,0.0,0.0,0.0,0.0,0.0,0.0,0.0,0.0,0.0,0.0,0.0,0.0,0.0,0.0,0.0,0.0,0.0,0.0,268.99384517622633,0.0,0.0,0.0,0.0,0.0,0.0,0.0,170.0,0.0,0.0,3.0,0.0,0.0,0.0,0.0,0.0,36.0,0.0,0.0,0.0,0.0,0.0,0.0,0.0,0.0,0.0,0.0,0.0,0.0,0.0,0.0,0.0,0.0,0.0,0.0,0.0,0.0,0.0,0.0,0.0,0.0,0.0,0.0,0.0,0.0,0.0,0.0,0.0,36.0,0.0,0.0,0.0,0.0,0.0,0.0,0.0,0.0,0.0,0.0,0.0,0.0,0.0,0.0,0.0,0.0,0.0,0.0,0.0,0.0,0.0,0.0,0.0,0.0,0.0,0.0,191.4671798857712,0.0,0.0,0.0,0.0,1.0,0.0,0.0,0.0,0.0,0.0,0.0,0.0,0.0,0.0,0.0,45.0,0.0,0.0,0.0,0.0,0.0,0.0,0.0,0.0,0.0,0.0,0.0,0.0,0.0,0.0,0.0,0.0,0.0,0.0,0.0,0.0,0.0,0.0,0.0,0.0,0.0,0.0,0.0,0.0,0.0,0.0,0.0,0.0,51.0,0.0,0.0,0.0,0.0,0.0,0.0,0.0,0.0,0.0,52.0,0.0,0.0,0.0,0.0,0.0,0.0,0.0,0.0,0.0,0.0,0.0,0.0,0.0,0.0,0.0,0.0,99.80563469340636,0.0,0.0,0.0,0.0,0.0,0.0,0.0,0.0,0.0,0.0,0.0,0.0,0.0,0.0,0.0,0.0,0.0,1.0,0.0,0.0,0.0,1.0,0.0,0.0,0.0,0.0,0.0,0.0,0.0,0.0,0.0,0.0,0.0,0.0,0.0,0.0,0.0,0.0,167.0,0.0,0.0,0.0,0.0,0.0,0.0,148.0,0.0,0.0,0.0,97.0,0.0,0.0,0.0,0.0,0.0,0.0,4.0,0.0,0.0,0.0,0.0,0.0,0.0,0.0,0.0,0.0,0.0,0.0,0.0,0.0,0.0,0.0,0.0,0.0,0.0,246.61961167919995,0.0,0.0,0.0,0.0,0.0,0.0,0.0,0.0,0.0,0.0,0.0,0.0,0.0,0.0,0.0,0.0,0.0,0.0,0.0,0.0,0.0,0.0,0.0,0.0,0.0,0.0,99.0,0.0,0.0,0.0,0.0,0.0,0.0,0.0,0.0,0.0,0.0,0.0,0.0,0.0,0.0,0.0,0.0,0.0,0.0,0.0,0.0,0.0,0.0,0.0,0.0,0.0,0.0,0.0,0.0,0.0,0.0,0.0,0.0,0.0,0.0,0.0,0.0,0.0,0.0,0.0,0.0,0.0,0.0,0.0,0.0,0.0,0.0,0.0,0.0,102.92801578157732,183.0,0.0,0.0,0.0,0.0,0.0,0.0,0.0,0.0,0.0,0.0,0.0,0.0,0.0,0.0,0.0,0.0,0.0,0.0,0.0,0.0,0.0,0.0,0.0,0.0,0.0,0.0,0.0,0.0,0.0,0.0,0.0,0.0,0.0,0.0,0.0,0.0,0.0,192.0,0.0,0.0,0.0,0.0,0.0,0.0,0.0,0.0,0.0,0.0,0.0,0.0,0.0,0.0,0.0,0.0,0.0,0.0,0.0,0.0,0.0,0.0,0.0,0.0,0.0,0.0,0.0,110.0,0.0,0.0,0.0,0.0,0.0,0.0,0.0,0.0,287.7385262286973,0.0,0.0,0.0,0.0,0.0,0.0,0.0,0.0,0.0,0.0,0.0,0.0,0.0,0.0,0.0,0.0,0.0,0.0,0.0,0.0,0.0,0.0,0.0,0.0,0.0,0.0,0.0,0.0,0.0,0.0,0.0,0.0,39.0,0.0,0.0,0.0,0.0,0.0,0.0,0.0,0.0,0.0,0.0,0.0,0.0,0.0,0.0,0.0,0.0,0.0,0.0,0.0,0.0,0.0,0.0,0.0,0.0,0.0,0.0,0.0,0.0,0.0,0.0,0.0,0.0,0.0,153.0,0.0,0.0,0.0,0.0,0.0,0.0,0.0,98.0,205.97175742864468,0.0,0.0,0.0,0.0,0.0,0.0,0.0,0.0,0.0,0.0,0.0,0.0,0.0,0.0,0.0,0.0,0.0,0.0,0.0,0.0,0.0,0.0,0.0,0.0,0.0,0.0,0.0,0.0,0.0,0.0,0.0,0.0,0.0,0.0,0.0,0.0,0.0,13.0,0.0,76.0,0.0,0.0,0.0,0.0,0.0,0.0,0.0,0.0,0.0,0.0,0.0,0.0,0.0,0.0,0.0,0.0,0.0,0.0,0.0,0.0,0.0,0.0,0.0,3.0,0.0,0.0,0.0,117.0,0.0,0.0,0.0,0.0,0.0,0.0,0.0,153.7746816988107,0.0,0.0,0.0,0.0,0.0,0.0,0.0,163.0,0.0,0.0,0.0,0.0,0.0,0.0,0.0,48.0,0.0,0.0,0.0,0.0,1.0,0.0,0.0,0.0,0.0,0.0,0.0,0.0,0.0,0.0,0.0,0.0,8.0,0.0,0.0,0.0,0.0,0.0,35.0,0.0,0.0,0.0,0.0,0.0,0.0,11.0,0.0,0.0,7.0,0.0,0.0,0.0,0.0,0.0,0.0,0.0,0.0,0.0,0.0,0.0,0.0,0.0,0.0,0.0,0.0,0.0,0.0,0.0,0.0,0.0,0.0,0.0,0.0,0.0,0.0,193.32041555564646,1.0,0.0,100.0,0.0,0.0,0.0,0.0,0.0,0.0,0.0,0.0,0.0,0.0,0.0,0.0,0.0,0.0,0.0,0.0,0.0,0.0,0.0,0.0,0.0,0.0,0.0,12.0,0.0,98.0,0.0,0.0,0.0,0.0,0.0,52.0,0.0,0.0,0.0,0.0,0.0,0.0,0.0,0.0,0.0,0.0,32.0,0.0,0.0,0.0,0.0,0.0,0.0,0.0,0.0,0.0,0.0,0.0,0.0,0.0,0.0,0.0,0.0,0.0,0.0,0.0,0.0,0.0,0.0,0.0,0.0,0.0,0.0,0.0,0.0,0.0,154.79300628922317,0.0,0.0,0.0,0.0,0.0,0.0,0.0,0.0,0.0,0.0,0.0,0.0,0.0,0.0,0.0,0.0,0.0,0.0,0.0,0.0,0.0,0.0,0.0,0.0,0.0,0.0,0.0,0.0,0.0,0.0,27.0,0.0,0.0,0.0,0.0,0.0,0.0,69.0,0.0,0.0,0.0,0.0,0.0,0.0,0.0,0.0,0.0,0.0,0.0,0.0,0.0,0.0,0.0,0.0,0.0,0.0,0.0,0.0,86.0,0.0,0.0,53.0,0.0,0.0,0.0,8.0,0.0,37.0,0.0,0.0,0.0,0.0,0.0,0.0,0.0,150.8992821807848,0.0,0.0,0.0,129.0,0.0,0.0,0.0,0.0,0.0,0.0,0.0,0.0,0.0,0.0,0.0,1.0,0.0,0.0,0.0,0.0,0.0,0.0,0.0,0.0,0.0,0.0,0.0,0.0,0.0,0.0,2.0,0.0,52.0,0.0,0.0,0.0,0.0,0.0,0.0,0.0,0.0,50.0,0.0,0.0,0.0,0.0,0.0,0.0,61.0,0.0,0.0,0.0,0.0,0.0,0.0,0.0,0.0,0.0,4.0,0.0,0.0,0.0,0.0,0.0,0.0,0.0,0.0,0.0,0.0,0.0,0.0,0.0,0.0,0.0,0.0,170.0650358828255,0.0,0.0,1.0,0.0,0.0,0.0,0.0,0.0,0.0,0.0,0.0,0.0,0.0,0.0,0.0,0.0,0.0,0.0,0.0,0.0,68.0,0.0,0.0,0.0,34.0,0.0,0.0,0.0,0.0,0.0,0.0,0.0,0.0,0.0,0.0,0.0,0.0,84.0,0.0,0.0,0.0,0.0,0.0,0.0,0.0,0.0,0.0,0.0,0.0,0.0,0.0,0.0,0.0,0.0,0.0,0.0,0.0,0.0,0.0,0.0,0.0,0.0,0.0,0.0,0.0,0.0,0.0,4.0,0.0,0.0,0.0,0.0,0.0,0.0,0.0,152.5518398486931,0.0,0.0,0.0,0.0,0.0,0.0,0.0,0.0,0.0,0.0,0.0,0.0,0.0,0.0,0.0,0.0,0.0,86.0,0.0,0.0,0.0,0.0,0.0,0.0,0.0,0.0,0.0,0.0,0.0,0.0,0.0,0.0,0.0,0.0,0.0,0.0,0.0,0.0,72.0,0.0,0.0,8.0,0.0,0.0,0.0,0.0,0.0,0.0,0.0,48.0,0.0,0.0,0.0,0.0,0.0,38.0,0.0,0.0,0.0,0.0,0.0,0.0,0.0,0.0,0.0,0.0,0.0,0.0,0.0,0.0,0.0,91.0,0.0,0.0,0.0,172.00871559915265,0.0,0.0,0.0,0.0,0.0,0.0,0.0,0.0,0.0,0.0,0.0,0.0,0.0,0.0,0.0,0.0,0.0,0.0,0.0,0.0,42.0,0.0,0.0,0.0,0.0,0.0,0.0,0.0,0.0,14.0,0.0,0.0,0.0,0.0,0.0,0.0,0.0,0.0,0.0,0.0,0.0,125.0,0.0,0.0,0.0,0.0,0.0,0.0,0.0,0.0,0.0,0.0,0.0,0.0,0.0,0.0,0.0,0.0,0.0,0.0,0.0,78.0,0.0,0.0,0.0,0.0,68.0,0.0,0.0,0.0,62.0,0.0,0.0,0.0,0.0,205.44120055844522,462.4718189668156,231.23590948340785,0.0,0.0,9.899494936611664,0.0,0.0,0.0,0.0,0.0,0.0,0.0,0.0,0.0,0.0,0.0,0.0,0.0,0.0,0.0,0.0,0.0,0.0,0.0,0.0,0.0,148.49242404917496,0.0,0.0,0.0,0.0,0.0,0.0,0.0,1.414213562373095,0.0,0.0,0.0,0.0,181.01933598375615,0.0,219.2031021678297,0.0,0.0,0.0,0.0,0.0,0.0,0.0,0.0,166.8772003600252,0.0,0.0,0.0,0.0,0.0,0.0,0.0,0.0,0.0,0.0,0.0,0.0,5.65685424949238,0.0,0.0,0.0,0.0,0.0,265.87214972614186,0.0,0.0,0.0,0.0,0.0,0.0,84.85281374238569,382.90379388479823,191.45189694239915,335.1686142824235,0.0,87.68124086713189,0.0,0.0,0.0,0.0,0.0,0.0,0.0,0.0,0.0,0.0,0.0,0.0,0.0,0.0,0.0,0.0,0.0,0.0,0.0,0.0,0.0,0.0,0.0,0.0,0.0,0.0,0.0,0.0,0.0,0.0,0.0,0.0,0.0,0.0,0.0,0.0,0.0,0.0,0.0,0.0,0.0,0.0,0.0,0.0,0.0,0.0,0.0,0.0,0.0,0.0,0.0,0.0,0.0,0.0,0.0,0.0,0.0,0.0,0.0,0.0,0.0,0.0,0.0,0.0,0.0,0.0,0.0,0.0,0.0,0.0,0.0,0.0,182.31447781047888,91.15723890523945,0.0,0.0,0.0,0.0,0.0,0.0,0.0,0.0,0.0,0.0,0.0,0.0,0.0,0.0,0.0,0.0,0.0,0.0,0.0,0.0,0.0,91.92388155425117,0.0,0.0,0.0,0.0,0.0,0.0,0.0,0.0,0.0,0.0,0.0,0.0,0.0,0.0,0.0,0.0,0.0,0.0,0.0,0.0,0.0,0.0,0.0,0.0,0.0,0.0,0.0,0.0,0.0,0.0,0.0,0.0,0.0,0.0,0.0,0.0,0.0,0.0,0.0,0.0,0.0,141.42135623730948,0.0,0.0,0.0,0.0,0.0,0.0,8.48528137423857,0.0,0.0,0.0,0.0,243.48039719420754,121.7401985971038,0.0,0.0,0.0,0.0,0.0,0.0,0.0,4.242640687119285,0.0,0.0,0.0,0.0,0.0,0.0,0.0,0.0,0.0,0.0,0.0,0.0,0.0,0.0,0.0,0.0,0.0,0.0,0.0,0.0,0.0,0.0,0.0,0.0,0.0,0.0,0.0,0.0,0.0,0.0,0.0,0.0,0.0,0.0,0.0,0.0,0.0,0.0,0.0,0.0,0.0,38.18376618407356,0.0,0.0,0.0,0.0,104.65180361560903,131.52186130069782,0.0,0.0,0.0,0.0,0.0,0.0,0.0,65.05382386916237,0.0,0.0,0.0,1.414213562373095,0.0,0.0,0.0,0.0,0.0,0.0,0.0,457.68006502881724,228.84003251440868,0.0,0.0,0.0,0.0,7.071067811865475,0.0,0.0,0.0,0.0,0.0,0.0,0.0,0.0,0.0,0.0,0.0,0.0,0.0,0.0,0.0,66.46803743153546,0.0,0.0,0.0,0.0,0.0,0.0,0.0,0.0,0.0,38.18376618407356,0.0,0.0,0.0,0.0,0.0,0.0,0.0,306.8843430349616,0.0,0.0,0.0,0.0,0.0,0.0,0.0,0.0,0.0,0.0,188.09040379562163,0.0,0.0,0.0,0.0,0.0,0.0,0.0,0.0,239.00209204105303,0.0,0.0,0.0,0.0,0.0,0.0,0.0,0.0,0.0,0.0,0.0,0.0,0.0,0.0,0.0,0.0,380.4147440431078,190.20737202155394,166.8772003600252,0.0,0.0,0.0,113.1370849898476,0.0,0.0,165.4629867976521,0.0,0.0,0.0,0.0,0.0,0.0,0.0,39.597979746446654,0.0,0.0,0.0,0.0,0.0,0.0,0.0,0.0,0.0,0.0,0.0,0.0,0.0,0.0,0.0,0.0,220.61731573020282,0.0,74.95331880577403,70.71067811865474,0.0,107.48023074035521,0.0,0.0,0.0,0.0,0.0,0.0,0.0,11.31370849898476,0.0,0.0,0.0,2.82842712474619,0.0,0.0,0.0,0.0,0.0,0.0,0.0,0.0,0.0,0.0,0.0,0.0,0.0,0.0,0.0,0.0,0.0,0.0,0.0,0.0,0.0,0.0,0.0,0.0,0.0,270.77548254378667,135.38774127189336,0.0,0.0,0.0,0.0,0.0,0.0,0.0,240.41630560342614,0.0,0.0,4.242640687119285,0.0,0.0,0.0,0.0,0.0,50.91168824543142,0.0,0.0,0.0,0.0,0.0,0.0,0.0,0.0,0.0,0.0,0.0,0.0,0.0,0.0,0.0,0.0,0.0,0.0,0.0,0.0,0.0,0.0,0.0,0.0,0.0,0.0,0.0,0.0,0.0,0.0,0.0,50.91168824543142,0.0,0.0,0.0,0.0,0.0,0.0,0.0,0.0,0.0,0.0,0.0,0.0,0.0,0.0,0.0,0.0,0.0,0.0,0.0,0.0,0.0,0.0,0.0,0.0,0.0,0.0,141.14648218466996,70.573241092335,0.0,0.0,0.0,0.0,1.414213562373095,0.0,0.0,0.0,0.0,0.0,0.0,0.0,0.0,0.0,0.0,63.63961030678927,0.0,0.0,0.0,0.0,0.0,0.0,0.0,0.0,0.0,0.0,0.0,0.0,0.0,0.0,0.0,0.0,0.0,0.0,0.0,0.0,0.0,0.0,0.0,0.0,0.0,0.0,0.0,0.0,0.0,0.0,0.0,0.0,72.12489168102785,0.0,0.0,0.0,0.0,0.0,0.0,0.0,0.0,0.0,73.53910524340094,0.0,0.0,0.0,0.0,0.0,0.0,0.0,0.0,0.0,0.0,0.0,0.0,0.0,0.0,0.0,0.0,348.7727995839107,174.38639979195537,0.0,0.0,0.0,0.0,0.0,0.0,0.0,0.0,0.0,0.0,0.0,0.0,0.0,0.0,0.0,0.0,0.0,1.414213562373095,0.0,0.0,0.0,1.414213562373095,0.0,0.0,0.0,0.0,0.0,0.0,0.0,0.0,0.0,0.0,0.0,0.0,0.0,0.0,0.0,0.0,236.17366491630685,0.0,0.0,0.0,0.0,0.0,0.0,209.30360723121805,0.0,0.0,0.0,137.17871555019022,0.0,0.0,0.0,0.0,0.0,0.0,5.65685424949238,0.0,0.0,0.0,0.0,0.0,0.0,0.0,0.0,0.0,0.0,0.0,0.0,0.0,0.0,0.0,0.0,0.0,0.0,145.56219586645858,72.7810979332293,0.0,0.0,0.0,0.0,0.0,0.0,0.0,0.0,0.0,0.0,0.0,0.0,0.0,0.0,0.0,0.0,0.0,0.0,0.0,0.0,0.0,0.0,0.0,0.0,0.0,0.0,140.0071426749364,0.0,0.0,0.0,0.0,0.0,0.0,0.0,0.0,0.0,0.0,0.0,0.0,0.0,0.0,0.0,0.0,0.0,0.0,0.0,0.0,0.0,0.0,0.0,0.0,0.0,0.0,0.0,0.0,0.0,0.0,0.0,0.0,0.0,0.0,0.0,0.0,0.0,0.0,0.0,0.0,0.0,0.0,0.0,0.0,0.0,0.0,0.0,0.0,406.92372620987027,203.4618631049352,258.8010819142764,0.0,0.0,0.0,0.0,0.0,0.0,0.0,0.0,0.0,0.0,0.0,0.0,0.0,0.0,0.0,0.0,0.0,0.0,0.0,0.0,0.0,0.0,0.0,0.0,0.0,0.0,0.0,0.0,0.0,0.0,0.0,0.0,0.0,0.0,0.0,0.0,0.0,271.5290039756342,0.0,0.0,0.0,0.0,0.0,0.0,0.0,0.0,0.0,0.0,0.0,0.0,0.0,0.0,0.0,0.0,0.0,0.0,0.0,0.0,0.0,0.0,0.0,0.0,0.0,0.0,0.0,155.56349186104043,0.0,0.0,0.0,0.0,0.0,0.0,0.0,0.0,291.2880528214106,145.64402641070532,0.0,0.0,0.0,0.0,0.0,0.0,0.0,0.0,0.0,0.0,0.0,0.0,0.0,0.0,0.0,0.0,0.0,0.0,0.0,0.0,0.0,0.0,0.0,0.0,0.0,0.0,0.0,0.0,0.0,0.0,0.0,0.0,55.154328932550705,0.0,0.0,0.0,0.0,0.0,0.0,0.0,0.0,0.0,0.0,0.0,0.0,0.0,0.0,0.0,0.0,0.0,0.0,0.0,0.0,0.0,0.0,0.0,0.0,0.0,0.0,0.0,0.0,0.0,0.0,0.0,0.0,0.0,216.37467504308353,0.0,0.0,0.0,0.0,0.0,0.0,0.0,138.5929291125633,217.47024040806383,108.73512020403194,0.0,0.0,0.0,0.0,0.0,0.0,0.0,0.0,0.0,0.0,0.0,0.0,0.0,0.0,0.0,0.0,0.0,0.0,0.0,0.0,0.0,0.0,0.0,0.0,0.0,0.0,0.0,0.0,0.0,0.0,0.0,0.0,0.0,0.0,0.0,0.0,0.0,18.384776310850235,0.0,107.48023074035521,0.0,0.0,0.0,0.0,0.0,0.0,0.0,0.0,0.0,0.0,0.0,0.0,0.0,0.0,0.0,0.0,0.0,0.0,0.0,0.0,0.0,0.0,0.0,4.242640687119285,0.0,0.0,0.0,165.4629867976521,0.0,0.0,0.0,0.0,0.0,0.0,0.0,273.39635356239785,136.69817678119895,0.0,0.0,0.0,0.0,0.0,0.0,0.0,230.51681066681448,0.0,0.0,0.0,0.0,0.0,0.0,0.0,67.88225099390856,0.0,0.0,0.0,0.0,1.414213562373095,0.0,0.0,0.0,0.0,0.0,0.0,0.0,0.0,0.0,0.0,0.0,11.31370849898476,0.0,0.0,0.0,0.0,0.0,49.49747468305832,0.0,0.0,0.0,0.0,0.0,0.0,15.556349186104043,0.0,0.0,9.899494936611664,0.0,0.0,0.0,0.0,0.0,0.0,0.0,0.0,0.0,0.0,0.0,0.0,0.0,0.0,0.0,0.0,0.0,0.0,0.0,0.0,0.0,0.0,0.0,0.0,0.0,0.0,218.91036885472317,109.45518442736162,1.414213562373095,0.0,141.42135623730948,0.0,0.0,0.0,0.0,0.0,0.0,0.0,0.0,0.0,0.0,0.0,0.0,0.0,0.0,0.0,0.0,0.0,0.0,0.0,0.0,0.0,0.0,0.0,16.97056274847714,0.0,138.5929291125633,0.0,0.0,0.0,0.0,0.0,73.53910524340094,0.0,0.0,0.0,0.0,0.0,0.0,0.0,0.0,0.0,0.0,45.25483399593904,0.0,0.0,0.0,0.0,0.0,0.0,0.0,0.0,0.0,0.0,0.0,0.0,0.0,0.0,0.0,0.0,0.0,0.0,0.0,0.0,0.0,0.0,0.0,0.0,0.0,0.0,0.0,0.0,0.0,213.40381141243057,106.70190570621531,0.0,0.0,0.0,0.0,0.0,0.0,0.0,0.0,0.0,0.0,0.0,0.0,0.0,0.0,0.0,0.0,0.0,0.0,0.0,0.0,0.0,0.0,0.0,0.0,0.0,0.0,0.0,0.0,0.0,0.0,38.18376618407356,0.0,0.0,0.0,0.0,0.0,0.0,97.58073580374355,0.0,0.0,0.0,0.0,0.0,0.0,0.0,0.0,0.0,0.0,0.0,0.0,0.0,0.0,0.0,0.0,0.0,0.0,0.0,0.0,121.62236636408616,0.0,0.0,74.95331880577403,0.0,0.0,0.0,11.31370849898476,0.0,52.32590180780451,0.0,0.0,0.0,0.0,0.0,0.0,0.0,240.50828023095886,120.25414011547946,0.0,0.0,0.0,182.43354954612926,0.0,0.0,0.0,0.0,0.0,0.0,0.0,0.0,0.0,0.0,0.0,1.414213562373095,0.0,0.0,0.0,0.0,0.0,0.0,0.0,0.0,0.0,0.0,0.0,0.0,0.0,0.0,2.82842712474619,0.0,73.53910524340094,0.0,0.0,0.0,0.0,0.0,0.0,0.0,0.0,70.71067811865474,0.0,0.0,0.0,0.0,0.0,0.0,86.26702730475878,0.0,0.0,0.0,0.0,0.0,0.0,0.0,0.0,0.0,5.65685424949238,0.0,0.0,0.0,0.0,0.0,0.0,0.0,0.0,0.0,0.0,0.0,0.0,0.0,0.0,0.0,0.0,215.74088087899014,107.8704404394951,0.0,0.0,1.414213562373095,0.0,0.0,0.0,0.0,0.0,0.0,0.0,0.0,0.0,0.0,0.0,0.0,0.0,0.0,0.0,0.0,0.0,96.16652224137046,0.0,0.0,0.0,48.08326112068523,0.0,0.0,0.0,0.0,0.0,0.0,0.0,0.0,0.0,0.0,0.0,0.0,118.79393923933998,0.0,0.0,0.0,0.0,0.0,0.0,0.0,0.0,0.0,0.0,0.0,0.0,0.0,0.0,0.0,0.0,0.0,0.0,0.0,0.0,0.0,0.0,0.0,0.0,0.0,0.0,0.0,0.0,0.0,5.65685424949238,0.0,0.0,0.0,0.0,0.0,0.0,0.0,243.2570584466982,121.62852922334913,0.0,0.0,0.0,0.0,0.0,0.0,0.0,0.0,0.0,0.0,0.0,0.0,0.0,0.0,0.0,0.0,0.0,121.62236636408616,0.0,0.0,0.0,0.0,0.0,0.0,0.0,0.0,0.0,0.0,0.0,0.0,0.0,0.0,0.0,0.0,0.0,0.0,0.0,0.0,101.82337649086284,0.0,0.0,11.31370849898476,0.0,0.0,0.0,0.0,0.0,0.0,0.0,67.88225099390856,0.0,0.0,0.0,0.0,0.0,53.740115370177605,0.0,0.0,0.0,0.0,0.0,0.0,0.0,0.0,0.0,0.0,0.0,0.0,0.0,0.0,0.0,128.69343417595164,0.0,0.0,0.0,290.5377320999643,145.26886604998217,0.0,0.0,0.0,0.0,0.0,0.0,0.0,0.0,0.0,0.0,0.0,0.0,0.0,0.0,0.0,0.0,0.0,0.0,0.0,0.0,59.39696961966999,0.0,0.0,0.0,0.0,0.0,0.0,0.0,0.0,19.798989873223327,0.0,0.0,0.0,0.0,0.0,0.0,0.0,0.0,0.0,0.0,0.0,176.77669529663686,0.0,0.0,0.0,0.0,0.0,0.0,0.0,0.0,0.0,0.0,0.0,0.0,0.0,0.0,0.0,0.0,0.0,0.0,0.0,110.30865786510141,0.0,0.0,0.0,0.0,96.16652224137046,0.0,0.0,0.0,87.68124086713189,0.0,0.0,0.0,0.0]

Clique cuts applied:  1
Cover cuts applied:  178
Implied bound cuts applied:  27
Flow cuts applied:  52
Mixed integer rounding cuts applied:  258
Zero-half cuts applied:  2
Lift and project cuts applied:  1
User cuts applied:  236

Root node processing (before b&c):
  Real time             =    0.50 sec. (418.13 ticks)
Sequential b&c:
  Real time             =   25.50 sec. (25165.15 ticks)
                          ------------
Total (root+branch&cut) =   26.00 sec. (25583.28 ticks)
